p edge 50 400 37
e 1 2
e 1 3
e 1 4
e 1 5
e 1 6
e 1 7
e 1 8
e 1 9
e 1 10
e 1 11
e 1 12
e 1 13
e 1 14
e 1 15
e 1 16
e 1 17
e 1 18
e 1 21
e 1 22
e 1 23
e 1 25
e 1 29
e 1 32
e 1 35
e 1 40
e 1 44
e 1 48
e 2 13
e 2 24
e 3 12
e 3 15
e 3 16
e 3 18
e 3 30
e 3 43
e 3 46
e 4 12
e 4 14
e 4 15
e 4 16
e 4 17
e 4 18
e 4 19
e 4 21
e 4 24
e 4 26
e 4 37
e 4 41
e 4 49
e 5 12
e 5 13
e 5 22
e 5 23
e 5 27
e 5 28
e 5 32
e 5 34
e 5 40
e 5 45
e 5 46
e 6 12
e 6 13
e 6 14
e 6 17
e 6 18
e 6 20
e 6 22
e 6 25
e 6 27
e 6 28
e 6 32
e 6 35
e 6 36
e 6 39
e 6 46
e 6 48
e 7 12
e 7 13
e 7 14
e 7 15
e 7 16
e 7 20
e 7 22
e 7 26
e 7 30
e 7 36
e 7 40
e 8 12
e 8 13
e 8 14
e 8 15
e 8 16
e 8 18
e 8 19
e 8 23
e 8 26
e 8 28
e 8 30
e 8 33
e 8 37
e 8 41
e 8 50
e 9 12
e 9 13
e 9 14
e 9 15
e 9 16
e 9 17
e 9 19
e 9 21
e 9 24
e 9 26
e 9 28
e 9 29
e 9 31
e 9 34
e 9 37
e 9 39
e 9 40
e 9 45
e 9 48
e 10 12
e 10 13
e 10 14
e 10 17
e 10 19
e 10 20
e 10 21
e 10 23
e 10 25
e 10 26
e 10 32
e 11 12
e 11 13
e 11 14
e 11 15
e 11 17
e 11 18
e 11 19
e 11 31
e 11 32
e 11 35
e 11 36
e 11 37
e 11 38
e 11 50
e 12 13
e 12 14
e 12 15
e 12 16
e 12 17
e 12 18
e 12 19
e 12 20
e 12 21
e 12 22
e 12 23
e 12 25
e 12 27
e 12 28
e 12 29
e 12 30
e 12 31
e 12 32
e 12 34
e 12 36
e 12 40
e 12 41
e 12 42
e 12 47
e 12 49
e 13 14
e 13 15
e 13 16
e 13 17
e 13 19
e 13 20
e 13 21
e 13 23
e 13 25
e 13 26
e 13 27
e 13 28
e 13 30
e 13 34
e 13 38
e 13 42
e 13 43
e 13 45
e 13 46
e 13 49
e 13 50
e 14 15
e 14 16
e 14 17
e 14 19
e 14 20
e 14 22
e 14 25
e 14 27
e 14 31
e 14 34
e 14 35
e 14 36
e 14 38
e 14 41
e 14 43
e 14 47
e 15 16
e 15 17
e 15 18
e 15 20
e 15 22
e 15 24
e 15 25
e 15 29
e 15 31
e 15 34
e 15 40
e 15 42
e 15 43
e 15 44
e 15 48
e 15 49
e 16 18
e 16 21
e 16 22
e 16 23
e 16 24
e 16 25
e 16 26
e 16 28
e 16 29
e 16 30
e 16 37
e 16 41
e 16 44
e 16 46
e 16 47
e 17 18
e 17 19
e 17 20
e 17 22
e 17 23
e 17 29
e 17 31
e 17 36
e 17 39
e 17 44
e 17 47
e 17 48
e 18 19
e 18 20
e 18 21
e 18 26
e 18 28
e 18 29
e 18 30
e 18 31
e 18 33
e 18 38
e 18 39
e 18 44
e 18 46
e 19 20
e 19 21
e 19 22
e 19 23
e 19 24
e 19 25
e 19 26
e 19 27
e 19 31
e 19 33
e 19 35
e 19 37
e 19 39
e 19 42
e 19 43
e 19 46
e 19 48
e 19 50
e 20 21
e 20 23
e 20 24
e 20 25
e 20 38
e 20 39
e 20 45
e 20 50
e 21 24
e 21 27
e 21 28
e 21 29
e 21 32
e 21 33
e 21 35
e 21 37
e 21 38
e 21 45
e 21 48
e 21 49
e 21 50
e 22 24
e 22 27
e 22 30
e 22 40
e 22 42
e 23 24
e 23 26
e 23 27
e 23 30
e 23 34
e 23 38
e 23 41
e 23 49
e 24 28
e 24 29
e 24 30
e 24 32
e 24 33
e 24 35
e 24 40
e 24 42
e 24 48
e 25 29
e 25 34
e 25 36
e 25 42
e 25 43
e 25 46
e 25 47
e 25 50
e 26 27
e 26 34
e 26 35
e 26 36
e 26 39
e 26 41
e 26 42
e 26 44
e 26 47
e 27 33
e 27 34
e 27 37
e 28 31
e 28 32
e 28 33
e 28 37
e 28 42
e 28 43
e 28 44
e 28 47
e 29 31
e 29 33
e 29 36
e 30 33
e 30 41
e 30 48
e 31 32
e 31 33
e 31 40
e 31 42
e 31 45
e 31 49
e 31 50
e 32 35
e 32 37
e 32 43
e 32 46
e 33 41
e 33 44
e 33 45
e 33 47
e 33 49
e 34 35
e 34 36
e 34 38
e 34 45
e 35 39
e 35 45
e 35 50
e 36 38
e 36 39
e 36 43
e 36 49
e 37 38
e 37 39
e 37 43
e 37 49
e 38 40
e 38 41
e 38 47
e 39 44
e 40 47
e 40 50
e 42 44
e 42 45
e 45 46
e 47 48
